p edge 150 3353
e 1 5
e 1 6
e 1 8
e 1 10
e 1 12
e 1 15
e 1 16
e 1 22
e 1 29
e 1 30
e 1 32
e 1 33
e 1 44
e 1 51
e 1 55
e 1 56
e 1 58
e 1 59
e 1 63
e 1 64
e 1 65
e 1 72
e 1 73
e 1 75
e 1 78
e 1 81
e 1 82
e 1 84
e 1 90
e 1 94
e 1 102
e 1 105
e 1 107
e 1 109
e 1 110
e 1 115
e 1 116
e 1 122
e 1 126
e 1 127
e 1 133
e 1 137
e 1 141
e 1 142
e 1 147
e 1 148
e 2 7
e 2 11
e 2 17
e 2 22
e 2 23
e 2 24
e 2 25
e 2 26
e 2 30
e 2 32
e 2 35
e 2 37
e 2 40
e 2 41
e 2 42
e 2 44
e 2 45
e 2 47
e 2 54
e 2 55
e 2 60
e 2 65
e 2 66
e 2 67
e 2 68
e 2 70
e 2 74
e 2 76
e 2 81
e 2 85
e 2 88
e 2 91
e 2 95
e 2 101
e 2 103
e 2 108
e 2 111
e 2 112
e 2 125
e 2 127
e 2 130
e 2 132
e 2 133
e 2 135
e 2 139
e 2 143
e 2 144
e 2 147
e 3 8
e 3 21
e 3 27
e 3 28
e 3 30
e 3 31
e 3 33
e 3 35
e 3 39
e 3 44
e 3 47
e 3 48
e 3 50
e 3 54
e 3 61
e 3 66
e 3 68
e 3 71
e 3 74
e 3 78
e 3 79
e 3 81
e 3 84
e 3 87
e 3 97
e 3 99
e 3 106
e 3 109
e 3 110
e 3 113
e 3 116
e 3 119
e 3 120
e 3 121
e 3 123
e 3 126
e 3 129
e 3 135
e 3 136
e 3 145
e 3 146
e 3 150
e 4 7
e 4 8
e 4 16
e 4 17
e 4 19
e 4 20
e 4 25
e 4 27
e 4 31
e 4 32
e 4 40
e 4 44
e 4 46
e 4 56
e 4 63
e 4 66
e 4 71
e 4 72
e 4 74
e 4 78
e 4 89
e 4 90
e 4 94
e 4 95
e 4 96
e 4 98
e 4 100
e 4 103
e 4 105
e 4 107
e 4 108
e 4 113
e 4 117
e 4 119
e 4 121
e 4 122
e 4 125
e 4 127
e 4 135
e 4 139
e 4 144
e 4 150
e 5 7
e 5 9
e 5 16
e 5 20
e 5 24
e 5 28
e 5 32
e 5 42
e 5 44
e 5 48
e 5 49
e 5 50
e 5 52
e 5 54
e 5 59
e 5 60
e 5 64
e 5 65
e 5 66
e 5 68
e 5 69
e 5 70
e 5 78
e 5 81
e 5 83
e 5 85
e 5 95
e 5 100
e 5 101
e 5 102
e 5 104
e 5 107
e 5 113
e 5 116
e 5 117
e 5 118
e 5 119
e 5 120
e 5 122
e 5 124
e 5 129
e 5 132
e 5 140
e 5 142
e 5 147
e 6 7
e 6 8
e 6 9
e 6 10
e 6 11
e 6 21
e 6 23
e 6 25
e 6 26
e 6 28
e 6 30
e 6 32
e 6 33
e 6 42
e 6 44
e 6 51
e 6 57
e 6 59
e 6 62
e 6 63
e 6 65
e 6 66
e 6 67
e 6 68
e 6 69
e 6 72
e 6 79
e 6 80
e 6 89
e 6 97
e 6 104
e 6 106
e 6 111
e 6 112
e 6 114
e 6 115
e 6 118
e 6 122
e 6 123
e 6 129
e 6 134
e 6 137
e 6 144
e 6 148
e 7 11
e 7 13
e 7 16
e 7 17
e 7 19
e 7 20
e 7 26
e 7 27
e 7 30
e 7 43
e 7 44
e 7 47
e 7 49
e 7 50
e 7 51
e 7 55
e 7 57
e 7 59
e 7 60
e 7 64
e 7 70
e 7 76
e 7 77
e 7 78
e 7 79
e 7 83
e 7 88
e 7 89
e 7 90
e 7 91
e 7 94
e 7 96
e 7 97
e 7 99
e 7 102
e 7 104
e 7 105
e 7 106
e 7 111
e 7 112
e 7 113
e 7 116
e 7 121
e 7 124
e 7 128
e 7 131
e 7 136
e 7 143
e 7 146
e 8 9
e 8 11
e 8 19
e 8 20
e 8 27
e 8 34
e 8 40
e 8 45
e 8 48
e 8 51
e 8 60
e 8 61
e 8 64
e 8 65
e 8 68
e 8 70
e 8 71
e 8 78
e 8 79
e 8 80
e 8 82
e 8 85
e 8 87
e 8 90
e 8 93
e 8 102
e 8 104
e 8 106
e 8 108
e 8 109
e 8 111
e 8 115
e 8 117
e 8 118
e 8 120
e 8 123
e 8 124
e 8 127
e 8 130
e 8 136
e 8 138
e 8 140
e 8 141
e 8 142
e 9 17
e 9 19
e 9 25
e 9 36
e 9 46
e 9 47
e 9 50
e 9 54
e 9 55
e 9 59
e 9 60
e 9 64
e 9 65
e 9 68
e 9 69
e 9 71
e 9 72
e 9 73
e 9 74
e 9 75
e 9 76
e 9 77
e 9 78
e 9 82
e 9 83
e 9 89
e 9 91
e 9 97
e 9 98
e 9 102
e 9 107
e 9 110
e 9 113
e 9 120
e 9 121
e 9 123
e 9 124
e 9 130
e 9 134
e 9 135
e 10 18
e 10 22
e 10 23
e 10 27
e 10 32
e 10 33
e 10 34
e 10 37
e 10 38
e 10 39
e 10 47
e 10 50
e 10 55
e 10 59
e 10 60
e 10 61
e 10 62
e 10 83
e 10 87
e 10 88
e 10 91
e 10 92
e 10 94
e 10 96
e 10 108
e 10 110
e 10 111
e 10 113
e 10 114
e 10 115
e 10 119
e 10 121
e 10 122
e 10 124
e 10 125
e 10 129
e 10 136
e 10 137
e 10 145
e 10 149
e 11 13
e 11 17
e 11 20
e 11 22
e 11 23
e 11 26
e 11 28
e 11 42
e 11 45
e 11 54
e 11 55
e 11 57
e 11 58
e 11 59
e 11 60
e 11 62
e 11 64
e 11 65
e 11 70
e 11 71
e 11 72
e 11 84
e 11 87
e 11 90
e 11 91
e 11 92
e 11 93
e 11 94
e 11 99
e 11 105
e 11 110
e 11 116
e 11 121
e 11 124
e 11 126
e 11 136
e 11 138
e 11 139
e 11 141
e 11 143
e 11 150
e 12 18
e 12 19
e 12 23
e 12 25
e 12 28
e 12 33
e 12 44
e 12 46
e 12 59
e 12 65
e 12 66
e 12 68
e 12 73
e 12 74
e 12 83
e 12 87
e 12 90
e 12 91
e 12 95
e 12 100
e 12 101
e 12 102
e 12 110
e 12 111
e 12 116
e 12 117
e 12 118
e 12 119
e 12 122
e 12 124
e 12 126
e 12 135
e 12 136
e 12 138
e 12 142
e 12 144
e 12 149
e 13 15
e 13 16
e 13 17
e 13 19
e 13 23
e 13 28
e 13 30
e 13 33
e 13 35
e 13 36
e 13 39
e 13 44
e 13 47
e 13 53
e 13 55
e 13 59
e 13 63
e 13 65
e 13 66
e 13 67
e 13 71
e 13 72
e 13 74
e 13 77
e 13 80
e 13 81
e 13 84
e 13 85
e 13 94
e 13 97
e 13 105
e 13 108
e 13 109
e 13 113
e 13 114
e 13 115
e 13 118
e 13 119
e 13 137
e 13 146
e 13 147
e 14 17
e 14 31
e 14 32
e 14 36
e 14 37
e 14 39
e 14 49
e 14 51
e 14 59
e 14 64
e 14 73
e 14 75
e 14 85
e 14 88
e 14 89
e 14 91
e 14 92
e 14 97
e 14 98
e 14 101
e 14 104
e 14 107
e 14 109
e 14 111
e 14 114
e 14 117
e 14 126
e 14 129
e 14 130
e 14 135
e 14 136
e 14 137
e 14 139
e 14 140
e 15 18
e 15 19
e 15 23
e 15 32
e 15 35
e 15 39
e 15 40
e 15 49
e 15 54
e 15 55
e 15 56
e 15 57
e 15 65
e 15 69
e 15 70
e 15 71
e 15 73
e 15 75
e 15 79
e 15 81
e 15 83
e 15 85
e 15 87
e 15 88
e 15 95
e 15 96
e 15 97
e 15 105
e 15 109
e 15 119
e 15 121
e 15 125
e 15 126
e 15 128
e 15 131
e 15 133
e 15 138
e 15 141
e 15 146
e 15 148
e 15 149
e 15 150
e 16 17
e 16 20
e 16 22
e 16 23
e 16 25
e 16 26
e 16 27
e 16 31
e 16 38
e 16 40
e 16 48
e 16 52
e 16 60
e 16 67
e 16 69
e 16 70
e 16 74
e 16 77
e 16 82
e 16 85
e 16 86
e 16 87
e 16 88
e 16 89
e 16 94
e 16 100
e 16 105
e 16 109
e 16 110
e 16 112
e 16 113
e 16 114
e 16 117
e 16 124
e 16 128
e 16 130
e 16 133
e 16 136
e 16 137
e 16 149
e 17 18
e 17 23
e 17 24
e 17 25
e 17 28
e 17 35
e 17 37
e 17 43
e 17 44
e 17 48
e 17 50
e 17 52
e 17 53
e 17 55
e 17 56
e 17 57
e 17 67
e 17 68
e 17 70
e 17 73
e 17 74
e 17 76
e 17 79
e 17 80
e 17 83
e 17 85
e 17 87
e 17 91
e 17 95
e 17 96
e 17 98
e 17 103
e 17 110
e 17 111
e 17 113
e 17 117
e 17 120
e 17 121
e 17 123
e 17 125
e 17 129
e 17 131
e 17 133
e 17 137
e 17 142
e 17 143
e 17 144
e 18 21
e 18 22
e 18 27
e 18 29
e 18 31
e 18 35
e 18 38
e 18 43
e 18 48
e 18 50
e 18 51
e 18 53
e 18 54
e 18 55
e 18 56
e 18 67
e 18 68
e 18 72
e 18 76
e 18 84
e 18 86
e 18 87
e 18 95
e 18 96
e 18 100
e 18 102
e 18 103
e 18 107
e 18 110
e 18 115
e 18 117
e 18 120
e 18 123
e 18 126
e 18 130
e 18 132
e 18 135
e 18 138
e 18 139
e 18 142
e 18 143
e 18 146
e 18 148
e 18 150
e 19 26
e 19 32
e 19 33
e 19 41
e 19 42
e 19 44
e 19 45
e 19 46
e 19 47
e 19 53
e 19 54
e 19 55
e 19 63
e 19 66
e 19 78
e 19 82
e 19 86
e 19 87
e 19 91
e 19 92
e 19 99
e 19 104
e 19 109
e 19 121
e 19 128
e 19 131
e 19 133
e 19 139
e 19 141
e 19 144
e 19 146
e 19 150
e 20 22
e 20 23
e 20 24
e 20 26
e 20 27
e 20 35
e 20 38
e 20 39
e 20 43
e 20 45
e 20 47
e 20 51
e 20 53
e 20 54
e 20 60
e 20 74
e 20 76
e 20 77
e 20 78
e 20 80
e 20 84
e 20 85
e 20 90
e 20 91
e 20 92
e 20 93
e 20 99
e 20 103
e 20 105
e 20 106
e 20 110
e 20 111
e 20 115
e 20 116
e 20 118
e 20 120
e 20 125
e 20 126
e 20 129
e 20 130
e 20 133
e 20 134
e 20 135
e 20 138
e 20 150
e 21 24
e 21 27
e 21 30
e 21 32
e 21 33
e 21 35
e 21 37
e 21 41
e 21 42
e 21 46
e 21 50
e 21 51
e 21 57
e 21 67
e 21 68
e 21 75
e 21 77
e 21 78
e 21 80
e 21 81
e 21 82
e 21 85
e 21 88
e 21 89
e 21 92
e 21 99
e 21 102
e 21 109
e 21 111
e 21 112
e 21 114
e 21 116
e 21 118
e 21 121
e 21 128
e 21 131
e 21 135
e 21 140
e 21 146
e 21 147
e 22 23
e 22 25
e 22 28
e 22 31
e 22 32
e 22 34
e 22 43
e 22 44
e 22 51
e 22 54
e 22 59
e 22 66
e 22 73
e 22 74
e 22 80
e 22 82
e 22 91
e 22 98
e 22 100
e 22 113
e 22 117
e 22 119
e 22 121
e 22 124
e 22 125
e 22 129
e 22 134
e 22 135
e 22 139
e 22 143
e 22 148
e 22 150
e 23 24
e 23 28
e 23 30
e 23 34
e 23 36
e 23 37
e 23 39
e 23 46
e 23 48
e 23 50
e 23 52
e 23 59
e 23 67
e 23 69
e 23 71
e 23 73
e 23 74
e 23 77
e 23 78
e 23 79
e 23 81
e 23 83
e 23 84
e 23 88
e 23 95
e 23 100
e 23 105
e 23 106
e 23 109
e 23 110
e 23 111
e 23 112
e 23 122
e 23 126
e 23 129
e 23 130
e 23 133
e 23 137
e 23 139
e 23 145
e 23 146
e 23 147
e 23 150
e 24 26
e 24 27
e 24 28
e 24 30
e 24 33
e 24 36
e 24 39
e 24 40
e 24 43
e 24 45
e 24 51
e 24 55
e 24 58
e 24 59
e 24 62
e 24 67
e 24 70
e 24 74
e 24 79
e 24 80
e 24 82
e 24 87
e 24 88
e 24 92
e 24 94
e 24 98
e 24 99
e 24 103
e 24 105
e 24 106
e 24 109
e 24 110
e 24 112
e 24 115
e 24 119
e 24 123
e 24 125
e 24 129
e 24 133
e 24 135
e 24 143
e 24 148
e 24 149
e 25 28
e 25 29
e 25 34
e 25 35
e 25 40
e 25 50
e 25 62
e 25 66
e 25 70
e 25 71
e 25 74
e 25 79
e 25 80
e 25 82
e 25 83
e 25 86
e 25 88
e 25 91
e 25 101
e 25 102
e 25 108
e 25 113
e 25 119
e 25 120
e 25 125
e 25 127
e 25 129
e 25 130
e 25 138
e 25 140
e 25 145
e 25 146
e 25 149
e 26 28
e 26 35
e 26 38
e 26 47
e 26 49
e 26 53
e 26 54
e 26 57
e 26 59
e 26 64
e 26 72
e 26 83
e 26 84
e 26 100
e 26 106
e 26 108
e 26 117
e 26 118
e 26 119
e 26 128
e 26 130
e 26 136
e 26 142
e 26 146
e 26 150
e 27 29
e 27 36
e 27 41
e 27 44
e 27 51
e 27 53
e 27 55
e 27 57
e 27 61
e 27 64
e 27 69
e 27 71
e 27 72
e 27 78
e 27 81
e 27 86
e 27 88
e 27 93
e 27 94
e 27 97
e 27 98
e 27 99
e 27 100
e 27 102
e 27 104
e 27 105
e 27 106
e 27 110
e 27 115
e 27 119
e 27 121
e 27 126
e 27 127
e 27 131
e 27 132
e 27 134
e 27 139
e 27 140
e 27 141
e 27 146
e 28 30
e 28 32
e 28 35
e 28 39
e 28 47
e 28 50
e 28 51
e 28 52
e 28 57
e 28 58
e 28 60
e 28 65
e 28 66
e 28 67
e 28 71
e 28 77
e 28 83
e 28 86
e 28 89
e 28 99
e 28 106
e 28 116
e 28 128
e 28 129
e 28 132
e 28 137
e 28 139
e 28 143
e 28 144
e 29 36
e 29 43
e 29 54
e 29 56
e 29 57
e 29 59
e 29 60
e 29 66
e 29 68
e 29 70
e 29 71
e 29 72
e 29 76
e 29 78
e 29 83
e 29 93
e 29 94
e 29 95
e 29 97
e 29 98
e 29 101
e 29 103
e 29 108
e 29 109
e 29 111
e 29 113
e 29 114
e 29 115
e 29 116
e 29 117
e 29 118
e 29 122
e 29 125
e 29 128
e 29 133
e 29 135
e 29 136
e 29 137
e 29 138
e 29 142
e 29 143
e 29 145
e 29 147
e 29 148
e 29 150
e 30 33
e 30 35
e 30 40
e 30 41
e 30 45
e 30 47
e 30 48
e 30 50
e 30 53
e 30 55
e 30 58
e 30 65
e 30 68
e 30 75
e 30 76
e 30 80
e 30 82
e 30 84
e 30 87
e 30 88
e 30 91
e 30 94
e 30 102
e 30 103
e 30 105
e 30 106
e 30 107
e 30 109
e 30 111
e 30 112
e 30 116
e 30 120
e 30 124
e 30 128
e 30 131
e 30 135
e 30 143
e 30 145
e 30 146
e 30 147
e 30 148
e 30 149
e 30 150
e 31 32
e 31 34
e 31 37
e 31 38
e 31 41
e 31 42
e 31 43
e 31 51
e 31 52
e 31 54
e 31 56
e 31 58
e 31 59
e 31 61
e 31 62
e 31 63
e 31 65
e 31 67
e 31 68
e 31 71
e 31 74
e 31 87
e 31 89
e 31 90
e 31 95
e 31 100
e 31 103
e 31 105
e 31 107
e 31 109
e 31 120
e 31 121
e 31 122
e 31 123
e 31 124
e 31 125
e 31 126
e 31 130
e 31 135
e 31 137
e 32 44
e 32 47
e 32 49
e 32 53
e 32 63
e 32 74
e 32 76
e 32 80
e 32 83
e 32 84
e 32 89
e 32 92
e 32 100
e 32 102
e 32 103
e 32 104
e 32 107
e 32 109
e 32 116
e 32 124
e 32 126
e 32 130
e 32 132
e 32 139
e 32 146
e 33 41
e 33 49
e 33 52
e 33 55
e 33 57
e 33 61
e 33 63
e 33 64
e 33 76
e 33 80
e 33 84
e 33 87
e 33 91
e 33 92
e 33 96
e 33 102
e 33 104
e 33 105
e 33 106
e 33 107
e 33 109
e 33 110
e 33 113
e 33 119
e 33 120
e 33 126
e 33 132
e 33 135
e 33 140
e 33 142
e 33 143
e 33 144
e 33 146
e 34 39
e 34 41
e 34 45
e 34 46
e 34 48
e 34 50
e 34 51
e 34 52
e 34 56
e 34 69
e 34 70
e 34 71
e 34 73
e 34 75
e 34 79
e 34 80
e 34 81
e 34 88
e 34 89
e 34 96
e 34 97
e 34 103
e 34 104
e 34 105
e 34 106
e 34 107
e 34 112
e 34 126
e 34 130
e 34 136
e 34 143
e 34 146
e 34 147
e 34 149
e 35 37
e 35 43
e 35 44
e 35 46
e 35 47
e 35 50
e 35 57
e 35 58
e 35 65
e 35 68
e 35 69
e 35 70
e 35 72
e 35 73
e 35 75
e 35 78
e 35 81
e 35 84
e 35 96
e 35 98
e 35 101
e 35 107
e 35 112
e 35 115
e 35 119
e 35 122
e 35 127
e 35 130
e 35 135
e 35 136
e 35 139
e 35 141
e 35 143
e 35 148
e 36 47
e 36 51
e 36 53
e 36 54
e 36 58
e 36 59
e 36 60
e 36 67
e 36 72
e 36 73
e 36 74
e 36 78
e 36 83
e 36 84
e 36 85
e 36 91
e 36 99
e 36 102
e 36 104
e 36 109
e 36 112
e 36 114
e 36 116
e 36 117
e 36 131
e 36 136
e 36 141
e 36 142
e 36 144
e 37 38
e 37 39
e 37 40
e 37 42
e 37 46
e 37 49
e 37 57
e 37 58
e 37 63
e 37 64
e 37 78
e 37 80
e 37 82
e 37 91
e 37 95
e 37 98
e 37 101
e 37 105
e 37 111
e 37 116
e 37 128
e 37 130
e 37 134
e 37 137
e 37 140
e 37 146
e 37 148
e 37 149
e 37 150
e 38 43
e 38 46
e 38 47
e 38 50
e 38 51
e 38 58
e 38 59
e 38 60
e 38 61
e 38 67
e 38 69
e 38 70
e 38 73
e 38 77
e 38 79
e 38 81
e 38 86
e 38 90
e 38 95
e 38 100
e 38 104
e 38 109
e 38 115
e 38 117
e 38 121
e 38 122
e 38 124
e 38 125
e 38 139
e 38 140
e 38 142
e 38 144
e 39 40
e 39 42
e 39 45
e 39 49
e 39 54
e 39 66
e 39 67
e 39 70
e 39 78
e 39 81
e 39 84
e 39 87
e 39 88
e 39 96
e 39 100
e 39 104
e 39 105
e 39 107
e 39 109
e 39 111
e 39 113
e 39 114
e 39 115
e 39 116
e 39 119
e 39 123
e 39 127
e 39 130
e 39 134
e 39 137
e 39 139
e 39 149
e 39 150
e 40 43
e 40 45
e 40 46
e 40 50
e 40 51
e 40 54
e 40 55
e 40 62
e 40 63
e 40 64
e 40 65
e 40 72
e 40 75
e 40 77
e 40 89
e 40 91
e 40 93
e 40 94
e 40 97
e 40 107
e 40 112
e 40 113
e 40 119
e 40 121
e 40 122
e 40 123
e 40 128
e 40 136
e 40 137
e 40 138
e 40 142
e 40 144
e 40 148
e 41 42
e 41 45
e 41 47
e 41 51
e 41 55
e 41 56
e 41 57
e 41 58
e 41 59
e 41 63
e 41 65
e 41 66
e 41 68
e 41 74
e 41 83
e 41 85
e 41 89
e 41 97
e 41 99
e 41 104
e 41 106
e 41 107
e 41 110
e 41 113
e 41 117
e 41 119
e 41 127
e 41 133
e 41 139
e 41 142
e 41 143
e 41 145
e 41 146
e 42 43
e 42 45
e 42 56
e 42 57
e 42 60
e 42 62
e 42 63
e 42 65
e 42 68
e 42 74
e 42 79
e 42 80
e 42 83
e 42 84
e 42 85
e 42 89
e 42 91
e 42 99
e 42 103
e 42 109
e 42 112
e 42 114
e 42 115
e 42 116
e 42 120
e 42 121
e 42 123
e 42 127
e 42 133
e 43 50
e 43 57
e 43 59
e 43 65
e 43 71
e 43 74
e 43 79
e 43 80
e 43 82
e 43 83
e 43 84
e 43 87
e 43 102
e 43 114
e 43 118
e 43 119
e 43 120
e 43 124
e 43 128
e 43 133
e 43 134
e 43 141
e 43 143
e 43 144
e 43 146
e 43 147
e 43 149
e 43 150
e 44 47
e 44 48
e 44 49
e 44 52
e 44 53
e 44 58
e 44 60
e 44 68
e 44 70
e 44 72
e 44 76
e 44 78
e 44 81
e 44 83
e 44 84
e 44 92
e 44 94
e 44 95
e 44 98
e 44 101
e 44 103
e 44 106
e 44 107
e 44 109
e 44 111
e 44 115
e 44 118
e 44 124
e 44 126
e 44 132
e 44 134
e 44 137
e 44 140
e 44 145
e 44 150
e 45 50
e 45 55
e 45 56
e 45 60
e 45 66
e 45 71
e 45 73
e 45 75
e 45 78
e 45 80
e 45 81
e 45 86
e 45 90
e 45 91
e 45 93
e 45 100
e 45 101
e 45 104
e 45 106
e 45 107
e 45 109
e 45 113
e 45 120
e 45 131
e 45 137
e 45 142
e 45 149
e 46 48
e 46 50
e 46 51
e 46 52
e 46 56
e 46 57
e 46 59
e 46 61
e 46 62
e 46 63
e 46 64
e 46 65
e 46 66
e 46 72
e 46 74
e 46 78
e 46 85
e 46 88
e 46 92
e 46 93
e 46 96
e 46 100
e 46 101
e 46 102
e 46 104
e 46 107
e 46 113
e 46 116
e 46 117
e 46 121
e 46 129
e 46 132
e 46 135
e 46 137
e 46 138
e 46 139
e 46 141
e 46 143
e 46 144
e 46 145
e 46 146
e 47 48
e 47 50
e 47 51
e 47 53
e 47 54
e 47 56
e 47 64
e 47 66
e 47 71
e 47 81
e 47 87
e 47 96
e 47 98
e 47 104
e 47 106
e 47 107
e 47 115
e 47 118
e 47 120
e 47 126
e 47 128
e 47 133
e 47 140
e 47 141
e 47 143
e 47 144
e 47 145
e 47 148
e 47 150
e 48 52
e 48 53
e 48 54
e 48 59
e 48 64
e 48 66
e 48 67
e 48 69
e 48 75
e 48 79
e 48 80
e 48 81
e 48 82
e 48 85
e 48 87
e 48 90
e 48 91
e 48 93
e 48 100
e 48 101
e 48 109
e 48 111
e 48 131
e 48 135
e 48 139
e 48 140
e 48 141
e 48 142
e 48 144
e 48 146
e 49 50
e 49 58
e 49 60
e 49 61
e 49 65
e 49 70
e 49 76
e 49 78
e 49 83
e 49 85
e 49 86
e 49 87
e 49 102
e 49 103
e 49 106
e 49 107
e 49 109
e 49 110
e 49 112
e 49 114
e 49 116
e 49 118
e 49 119
e 49 120
e 49 122
e 49 123
e 49 129
e 49 130
e 49 133
e 49 134
e 49 136
e 49 138
e 49 144
e 49 147
e 50 51
e 50 52
e 50 57
e 50 60
e 50 62
e 50 65
e 50 66
e 50 68
e 50 75
e 50 76
e 50 78
e 50 88
e 50 106
e 50 113
e 50 114
e 50 129
e 50 137
e 50 139
e 50 140
e 50 142
e 50 143
e 50 145
e 51 52
e 51 54
e 51 55
e 51 56
e 51 58
e 51 59
e 51 61
e 51 62
e 51 63
e 51 68
e 51 70
e 51 74
e 51 79
e 51 87
e 51 93
e 51 95
e 51 99
e 51 101
e 51 106
e 51 110
e 51 120
e 51 121
e 51 122
e 51 126
e 51 128
e 51 129
e 51 131
e 51 133
e 51 136
e 51 143
e 52 56
e 52 58
e 52 59
e 52 65
e 52 73
e 52 74
e 52 79
e 52 87
e 52 89
e 52 94
e 52 106
e 52 112
e 52 113
e 52 117
e 52 119
e 52 120
e 52 121
e 52 122
e 52 123
e 52 125
e 52 126
e 52 132
e 52 135
e 52 138
e 52 141
e 52 145
e 52 150
e 53 55
e 53 56
e 53 60
e 53 61
e 53 67
e 53 71
e 53 78
e 53 79
e 53 80
e 53 84
e 53 85
e 53 86
e 53 87
e 53 90
e 53 95
e 53 96
e 53 98
e 53 99
e 53 110
e 53 112
e 53 113
e 53 115
e 53 118
e 53 120
e 53 128
e 53 129
e 53 134
e 53 135
e 53 138
e 53 142
e 53 143
e 53 144
e 53 146
e 54 62
e 54 63
e 54 64
e 54 65
e 54 72
e 54 74
e 54 79
e 54 80
e 54 81
e 54 82
e 54 83
e 54 84
e 54 88
e 54 89
e 54 90
e 54 110
e 54 113
e 54 114
e 54 128
e 54 129
e 54 135
e 54 136
e 54 137
e 54 138
e 54 141
e 54 143
e 54 144
e 54 148
e 54 150
e 55 60
e 55 62
e 55 65
e 55 66
e 55 71
e 55 73
e 55 84
e 55 88
e 55 93
e 55 95
e 55 96
e 55 97
e 55 98
e 55 99
e 55 101
e 55 104
e 55 105
e 55 109
e 55 110
e 55 111
e 55 112
e 55 131
e 55 133
e 55 135
e 55 140
e 55 141
e 55 142
e 55 144
e 55 147
e 55 149
e 56 57
e 56 61
e 56 65
e 56 67
e 56 69
e 56 71
e 56 74
e 56 79
e 56 80
e 56 82
e 56 83
e 56 91
e 56 93
e 56 96
e 56 97
e 56 98
e 56 101
e 56 102
e 56 104
e 56 106
e 56 107
e 56 114
e 56 116
e 56 117
e 56 118
e 56 119
e 56 121
e 56 122
e 56 124
e 56 129
e 56 134
e 56 138
e 56 139
e 56 140
e 56 149
e 57 61
e 57 63
e 57 64
e 57 66
e 57 70
e 57 71
e 57 72
e 57 73
e 57 74
e 57 75
e 57 80
e 57 83
e 57 93
e 57 96
e 57 99
e 57 101
e 57 103
e 57 105
e 57 106
e 57 109
e 57 110
e 57 112
e 57 113
e 57 118
e 57 132
e 57 134
e 57 135
e 57 137
e 57 139
e 57 145
e 57 148
e 58 63
e 58 70
e 58 72
e 58 77
e 58 84
e 58 85
e 58 86
e 58 90
e 58 92
e 58 94
e 58 97
e 58 102
e 58 104
e 58 109
e 58 111
e 58 116
e 58 117
e 58 120
e 58 121
e 58 126
e 58 127
e 58 128
e 58 130
e 58 140
e 58 146
e 58 147
e 58 149
e 59 63
e 59 64
e 59 68
e 59 70
e 59 71
e 59 76
e 59 77
e 59 79
e 59 81
e 59 84
e 59 91
e 59 94
e 59 102
e 59 104
e 59 105
e 59 106
e 59 108
e 59 109
e 59 113
e 59 117
e 59 118
e 59 129
e 59 130
e 59 131
e 59 133
e 59 136
e 59 138
e 59 140
e 59 148
e 59 150
e 60 67
e 60 68
e 60 71
e 60 73
e 60 76
e 60 77
e 60 84
e 60 85
e 60 90
e 60 93
e 60 94
e 60 95
e 60 100
e 60 104
e 60 105
e 60 110
e 60 116
e 60 117
e 60 120
e 60 121
e 60 130
e 60 135
e 60 136
e 60 137
e 60 141
e 60 142
e 60 150
e 61 63
e 61 64
e 61 67
e 61 69
e 61 73
e 61 79
e 61 80
e 61 81
e 61 89
e 61 93
e 61 96
e 61 98
e 61 100
e 61 107
e 61 111
e 61 114
e 61 119
e 61 120
e 61 122
e 61 125
e 61 130
e 61 132
e 61 133
e 61 134
e 61 137
e 61 138
e 61 141
e 61 143
e 61 146
e 61 147
e 61 150
e 62 68
e 62 76
e 62 77
e 62 81
e 62 83
e 62 87
e 62 89
e 62 91
e 62 92
e 62 93
e 62 99
e 62 100
e 62 101
e 62 106
e 62 109
e 62 117
e 62 120
e 62 121
e 62 122
e 62 127
e 62 130
e 62 139
e 62 140
e 62 141
e 62 142
e 62 143
e 62 147
e 62 148
e 63 64
e 63 70
e 63 71
e 63 77
e 63 78
e 63 80
e 63 83
e 63 86
e 63 87
e 63 91
e 63 92
e 63 94
e 63 100
e 63 104
e 63 106
e 63 108
e 63 114
e 63 116
e 63 117
e 63 118
e 63 119
e 63 124
e 63 129
e 63 132
e 63 136
e 63 145
e 64 66
e 64 69
e 64 71
e 64 72
e 64 73
e 64 81
e 64 83
e 64 90
e 64 92
e 64 94
e 64 97
e 64 99
e 64 100
e 64 104
e 64 105
e 64 107
e 64 114
e 64 118
e 64 120
e 64 122
e 64 123
e 64 129
e 64 130
e 64 131
e 64 135
e 64 137
e 64 142
e 64 148
e 64 149
e 65 72
e 65 75
e 65 76
e 65 79
e 65 80
e 65 85
e 65 86
e 65 95
e 65 96
e 65 99
e 65 100
e 65 101
e 65 106
e 65 108
e 65 109
e 65 110
e 65 129
e 65 133
e 65 136
e 65 140
e 65 142
e 65 147
e 66 69
e 66 77
e 66 81
e 66 82
e 66 83
e 66 91
e 66 95
e 66 98
e 66 103
e 66 108
e 66 109
e 66 110
e 66 113
e 66 116
e 66 119
e 66 123
e 66 125
e 66 127
e 66 129
e 66 130
e 66 132
e 66 137
e 66 140
e 66 143
e 66 149
e 67 68
e 67 73
e 67 74
e 67 76
e 67 80
e 67 84
e 67 88
e 67 90
e 67 92
e 67 94
e 67 98
e 67 100
e 67 101
e 67 103
e 67 104
e 67 107
e 67 111
e 67 113
e 67 120
e 67 121
e 67 124
e 67 131
e 67 133
e 67 134
e 67 140
e 67 146
e 68 73
e 68 74
e 68 79
e 68 81
e 68 82
e 68 84
e 68 86
e 68 91
e 68 100
e 68 101
e 68 106
e 68 108
e 68 114
e 68 116
e 68 117
e 68 119
e 68 122
e 68 125
e 68 126
e 68 127
e 68 132
e 68 135
e 68 136
e 68 137
e 68 140
e 69 73
e 69 78
e 69 79
e 69 88
e 69 89
e 69 91
e 69 95
e 69 96
e 69 101
e 69 102
e 69 106
e 69 108
e 69 113
e 69 115
e 69 118
e 69 119
e 69 122
e 69 126
e 69 127
e 69 128
e 69 129
e 69 138
e 69 139
e 69 140
e 69 141
e 69 142
e 69 144
e 69 149
e 70 74
e 70 85
e 70 90
e 70 91
e 70 93
e 70 95
e 70 97
e 70 98
e 70 99
e 70 104
e 70 105
e 70 109
e 70 112
e 70 113
e 70 114
e 70 116
e 70 117
e 70 120
e 70 121
e 70 123
e 70 125
e 70 126
e 70 127
e 70 128
e 70 130
e 70 131
e 70 135
e 70 138
e 70 141
e 70 144
e 70 149
e 70 150
e 71 76
e 71 81
e 71 82
e 71 89
e 71 92
e 71 93
e 71 96
e 71 97
e 71 105
e 71 106
e 71 109
e 71 110
e 71 112
e 71 113
e 71 116
e 71 118
e 71 121
e 71 124
e 71 126
e 71 128
e 71 130
e 71 131
e 71 137
e 71 140
e 71 142
e 71 145
e 71 149
e 71 150
e 72 76
e 72 87
e 72 88
e 72 94
e 72 99
e 72 103
e 72 105
e 72 109
e 72 114
e 72 117
e 72 119
e 72 120
e 72 121
e 72 123
e 72 126
e 72 134
e 72 135
e 72 138
e 72 149
e 72 150
e 73 74
e 73 78
e 73 80
e 73 81
e 73 82
e 73 84
e 73 86
e 73 89
e 73 90
e 73 92
e 73 94
e 73 100
e 73 102
e 73 105
e 73 107
e 73 108
e 73 110
e 73 113
e 73 119
e 73 121
e 73 123
e 73 125
e 73 127
e 73 138
e 73 142
e 74 76
e 74 78
e 74 89
e 74 91
e 74 96
e 74 101
e 74 102
e 74 104
e 74 111
e 74 119
e 74 120
e 74 122
e 74 129
e 74 130
e 74 133
e 74 134
e 74 145
e 74 149
e 74 150
e 75 81
e 75 84
e 75 85
e 75 92
e 75 109
e 75 112
e 75 114
e 75 117
e 75 128
e 75 131
e 75 135
e 75 137
e 75 139
e 75 141
e 75 142
e 75 143
e 75 144
e 75 146
e 75 147
e 75 150
e 76 78
e 76 79
e 76 83
e 76 84
e 76 88
e 76 92
e 76 97
e 76 101
e 76 105
e 76 110
e 76 123
e 76 124
e 76 127
e 76 133
e 76 136
e 76 141
e 76 143
e 77 81
e 77 84
e 77 85
e 77 88
e 77 89
e 77 90
e 77 91
e 77 109
e 77 114
e 77 120
e 77 125
e 77 138
e 77 139
e 77 141
e 77 143
e 77 150
e 78 81
e 78 82
e 78 86
e 78 87
e 78 89
e 78 93
e 78 94
e 78 99
e 78 102
e 78 104
e 78 109
e 78 111
e 78 126
e 78 128
e 78 138
e 78 142
e 78 147
e 79 80
e 79 82
e 79 83
e 79 90
e 79 93
e 79 96
e 79 97
e 79 98
e 79 99
e 79 100
e 79 106
e 79 113
e 79 115
e 79 118
e 79 121
e 79 124
e 79 127
e 79 133
e 79 134
e 79 141
e 79 143
e 79 148
e 80 87
e 80 92
e 80 94
e 80 97
e 80 98
e 80 99
e 80 101
e 80 108
e 80 112
e 80 115
e 80 117
e 80 121
e 80 125
e 80 126
e 80 127
e 80 128
e 80 131
e 80 132
e 80 134
e 80 140
e 80 143
e 80 145
e 80 146
e 80 149
e 81 91
e 81 100
e 81 101
e 81 107
e 81 112
e 81 113
e 81 116
e 81 120
e 81 132
e 81 137
e 81 139
e 81 141
e 81 142
e 81 144
e 81 150
e 82 86
e 82 99
e 82 102
e 82 115
e 82 117
e 82 119
e 82 127
e 82 128
e 82 134
e 82 140
e 82 147
e 82 148
e 83 87
e 83 89
e 83 92
e 83 93
e 83 94
e 83 95
e 83 98
e 83 99
e 83 106
e 83 115
e 83 117
e 83 118
e 83 120
e 83 124
e 83 132
e 83 133
e 83 135
e 83 137
e 83 139
e 83 142
e 83 144
e 83 148
e 83 149
e 84 87
e 84 90
e 84 93
e 84 94
e 84 98
e 84 105
e 84 106
e 84 109
e 84 114
e 84 120
e 84 128
e 84 129
e 84 130
e 84 132
e 84 133
e 84 136
e 84 137
e 84 139
e 84 145
e 84 147
e 85 87
e 85 90
e 85 91
e 85 97
e 85 98
e 85 101
e 85 102
e 85 106
e 85 108
e 85 113
e 85 114
e 85 116
e 85 125
e 85 129
e 85 134
e 85 135
e 85 136
e 85 142
e 85 145
e 85 150
e 86 87
e 86 88
e 86 91
e 86 93
e 86 96
e 86 97
e 86 99
e 86 101
e 86 107
e 86 111
e 86 113
e 86 114
e 86 121
e 86 132
e 86 133
e 86 145
e 86 146
e 86 147
e 86 150
e 87 89
e 87 90
e 87 97
e 87 102
e 87 109
e 87 117
e 87 123
e 87 129
e 87 131
e 87 135
e 87 142
e 87 143
e 87 146
e 87 150
e 88 91
e 88 92
e 88 93
e 88 95
e 88 96
e 88 99
e 88 100
e 88 107
e 88 108
e 88 116
e 88 122
e 88 124
e 88 133
e 88 134
e 88 135
e 88 144
e 88 148
e 89 91
e 89 92
e 89 93
e 89 95
e 89 99
e 89 104
e 89 107
e 89 109
e 89 111
e 89 112
e 89 117
e 89 118
e 89 122
e 89 123
e 89 125
e 89 128
e 89 133
e 89 140
e 89 141
e 89 142
e 89 145
e 89 147
e 89 150
e 90 92
e 90 99
e 90 106
e 90 111
e 90 116
e 90 123
e 90 131
e 90 132
e 90 134
e 90 136
e 90 138
e 90 145
e 90 148
e 91 93
e 91 94
e 91 97
e 91 101
e 91 104
e 91 106
e 91 109
e 91 112
e 91 113
e 91 115
e 91 120
e 91 126
e 91 127
e 91 129
e 91 130
e 91 131
e 91 132
e 91 134
e 91 136
e 91 137
e 91 144
e 91 146
e 91 148
e 91 149
e 92 94
e 92 96
e 92 97
e 92 99
e 92 102
e 92 103
e 92 106
e 92 108
e 92 116
e 92 117
e 92 120
e 92 124
e 92 127
e 92 136
e 92 143
e 92 144
e 92 147
e 93 97
e 93 98
e 93 99
e 93 101
e 93 105
e 93 114
e 93 116
e 93 125
e 93 128
e 93 135
e 93 139
e 93 140
e 94 95
e 94 96
e 94 103
e 94 106
e 94 107
e 94 108
e 94 110
e 94 113
e 94 119
e 94 121
e 94 124
e 94 126
e 94 127
e 94 139
e 94 145
e 94 148
e 94 150
e 95 98
e 95 105
e 95 117
e 95 118
e 95 130
e 95 131
e 95 132
e 95 136
e 95 139
e 95 144
e 95 145
e 95 147
e 95 148
e 95 149
e 95 150
e 96 98
e 96 99
e 96 108
e 96 116
e 96 121
e 96 132
e 96 133
e 96 134
e 96 137
e 96 141
e 96 149
e 96 150
e 97 101
e 97 104
e 97 107
e 97 114
e 97 119
e 97 121
e 97 122
e 97 128
e 97 130
e 97 133
e 97 134
e 97 135
e 97 138
e 97 140
e 97 148
e 98 99
e 98 100
e 98 101
e 98 103
e 98 107
e 98 108
e 98 110
e 98 111
e 98 114
e 98 115
e 98 121
e 98 131
e 98 134
e 98 143
e 98 147
e 98 148
e 98 149
e 99 100
e 99 103
e 99 109
e 99 117
e 99 118
e 99 120
e 99 123
e 99 124
e 99 126
e 99 129
e 99 130
e 99 131
e 99 134
e 99 137
e 99 141
e 99 143
e 99 146
e 99 148
e 100 102
e 100 103
e 100 109
e 100 113
e 100 115
e 100 118
e 100 122
e 100 133
e 100 136
e 100 139
e 100 143
e 100 144
e 100 146
e 101 102
e 101 104
e 101 105
e 101 108
e 101 110
e 101 111
e 101 116
e 101 117
e 101 119
e 101 121
e 101 122
e 101 123
e 101 124
e 101 130
e 101 135
e 101 144
e 101 145
e 101 150
e 102 108
e 102 111
e 102 114
e 102 116
e 102 120
e 102 121
e 102 123
e 102 124
e 102 125
e 102 128
e 102 134
e 102 143
e 102 147
e 102 149
e 103 105
e 103 106
e 103 107
e 103 108
e 103 112
e 103 120
e 103 124
e 103 126
e 103 127
e 103 134
e 103 136
e 103 140
e 103 142
e 103 143
e 103 145
e 103 147
e 104 105
e 104 109
e 104 113
e 104 114
e 104 121
e 104 127
e 104 138
e 104 141
e 104 143
e 104 144
e 104 145
e 104 146
e 104 148
e 105 107
e 105 108
e 105 109
e 105 111
e 105 113
e 105 114
e 105 115
e 105 117
e 105 118
e 105 121
e 105 122
e 105 129
e 105 131
e 105 133
e 105 135
e 105 136
e 105 146
e 105 148
e 106 107
e 106 114
e 106 116
e 106 128
e 106 129
e 106 131
e 106 132
e 106 136
e 106 137
e 106 144
e 106 146
e 106 148
e 107 111
e 107 113
e 107 122
e 107 123
e 107 126
e 107 129
e 107 134
e 107 136
e 107 137
e 107 138
e 107 140
e 107 149
e 108 115
e 108 116
e 108 117
e 108 125
e 108 128
e 108 131
e 108 133
e 108 134
e 108 140
e 108 144
e 108 147
e 108 148
e 109 111
e 109 114
e 109 115
e 109 118
e 109 121
e 109 124
e 109 125
e 109 127
e 109 133
e 109 136
e 109 145
e 110 115
e 110 117
e 110 118
e 110 123
e 110 128
e 110 129
e 110 133
e 110 134
e 110 136
e 110 140
e 110 141
e 110 143
e 111 114
e 111 121
e 111 135
e 111 136
e 111 141
e 111 142
e 111 144
e 111 145
e 111 146
e 111 147
e 111 150
e 112 114
e 112 121
e 112 122
e 112 123
e 112 124
e 112 125
e 112 129
e 112 130
e 112 132
e 112 133
e 112 136
e 112 139
e 112 141
e 112 142
e 112 145
e 112 150
e 113 117
e 113 119
e 113 121
e 113 129
e 113 135
e 113 136
e 113 142
e 113 145
e 114 115
e 114 118
e 114 124
e 114 128
e 114 137
e 114 139
e 114 140
e 114 141
e 114 143
e 114 144
e 114 146
e 114 148
e 114 149
e 115 120
e 115 122
e 115 127
e 115 136
e 115 140
e 115 141
e 115 145
e 115 147
e 116 118
e 116 119
e 116 120
e 116 128
e 116 131
e 116 132
e 116 137
e 116 143
e 116 144
e 117 118
e 117 122
e 117 123
e 117 124
e 117 125
e 117 131
e 117 134
e 117 135
e 117 137
e 117 140
e 117 142
e 117 143
e 117 145
e 117 150
e 118 119
e 118 124
e 118 127
e 118 132
e 118 133
e 118 134
e 118 138
e 118 141
e 118 143
e 118 149
e 118 150
e 119 120
e 119 123
e 119 125
e 119 127
e 119 128
e 119 129
e 119 132
e 119 133
e 119 134
e 119 136
e 119 137
e 119 139
e 119 140
e 119 146
e 119 147
e 119 148
e 120 127
e 120 128
e 120 135
e 120 136
e 120 138
e 120 144
e 120 145
e 120 146
e 121 123
e 121 131
e 121 133
e 121 141
e 121 144
e 121 145
e 121 150
e 122 134
e 122 135
e 122 136
e 122 142
e 122 143
e 122 150
e 123 126
e 123 128
e 123 130
e 123 133
e 123 135
e 123 138
e 123 145
e 123 147
e 123 148
e 123 149
e 124 125
e 124 127
e 124 128
e 124 131
e 124 132
e 124 134
e 124 137
e 124 138
e 124 139
e 124 142
e 124 146
e 125 128
e 125 134
e 125 137
e 125 139
e 125 141
e 125 143
e 125 146
e 125 148
e 125 150
e 126 128
e 126 137
e 126 138
e 126 142
e 126 144
e 126 148
e 126 150
e 127 128
e 127 131
e 127 138
e 127 141
e 127 146
e 128 131
e 128 132
e 128 140
e 128 141
e 128 143
e 128 145
e 128 146
e 129 130
e 129 132
e 129 135
e 129 137
e 129 138
e 129 141
e 129 145
e 129 148
e 130 131
e 130 133
e 130 136
e 130 140
e 130 141
e 130 143
e 131 138
e 131 146
e 131 149
e 131 150
e 132 134
e 132 135
e 132 137
e 132 139
e 132 141
e 132 143
e 132 147
e 133 135
e 133 138
e 133 143
e 133 146
e 133 149
e 133 150
e 134 138
e 134 146
e 134 148
e 135 136
e 135 142
e 135 143
e 135 144
e 135 145
e 135 147
e 136 138
e 136 139
e 136 140
e 136 144
e 136 145
e 136 146
e 136 147
e 136 148
e 137 139
e 137 143
e 137 144
e 137 146
e 137 147
e 138 140
e 138 142
e 138 144
e 138 147
e 138 148
e 139 142
e 139 143
e 139 145
e 139 147
e 139 149
e 140 141
e 141 143
e 142 144
e 142 149
e 143 144
e 143 145
e 143 150
e 144 145
e 144 146
e 145 147
e 145 148
e 146 148
e 146 150
e 148 150
e 149 150
